NAME: tsp15_29
COMMENT: 15-tsp problem (Padberg/Rinaldi)
TYPE: TSP
DIMENSION: 15
EDGE_WEIGHT_TYPE : EUC_2D
NODE_COORD_SECTION
1 1 34
2 28 25
3 9 7
4 20 10
5 4 6
6 24 24
7 22 16
8 27 6
9 14 8
10 4 25
11 9 22
12 10 18
13 12 26
14 39 37
15 15 32
